N = 50;
MinK = 5;
Capacity = 200;

Scale = 10;
DistanceRoundingMode = Floor;
X = array1d(0..N, [40, 45, 45, 42, 42, 42, 40, 40, 38, 38, 35, 35, 25, 22, 22, 20, 20, 18, 15, 15, 30, 30, 28, 28, 25, 25, 25, 23, 23, 20, 20, 10, 10, 8, 8, 5, 5, 2, 0, 0, 35, 35, 33, 33, 32, 30, 30, 30, 28, 28, 26]);
Y = array1d(0..N, [50, 68, 70, 66, 68, 65, 69, 66, 68, 70, 66, 69, 85, 75, 85, 80, 85, 75, 75, 80, 50, 52, 52, 55, 50, 52, 55, 52, 55, 50, 55, 35, 40, 40, 45, 35, 45, 40, 40, 45, 30, 32, 32, 35, 30, 30, 32, 35, 30, 35, 32]);

Demands = array1d(1..N, [10, 30, 10, 10, 10, 20, 20, 20, 10, 10, 10, 20, 30, 10, 40, 40, 20, 20, 10, 10, 20, 20, 10, 10, 40, 10, 10, 20, 10, 10, 20, 30, 40, 20, 10, 10, 20, 30, 20, 10, 10, 20, 10, 10, 10, 30, 10, 10, 10, 10]);

ServiceTimes = array1d(1..N, [90, 90, 90, 90, 90, 90, 90, 90, 90, 90, 90, 90, 90, 90, 90, 90, 90, 90, 90, 90, 90, 90, 90, 90, 90, 90, 90, 90, 90, 90, 90, 90, 90, 90, 90, 90, 90, 90, 90, 90, 90, 90, 90, 90, 90, 90, 90, 90, 90, 90]);

TimeWindows = array2d(1..2, 0..N, [|
     0, 885, 802,  25, 699,  15, 580, 142, 220, 499, 331, 420, 617,  30, 541, 362, 448,  75, 142, 244,  10, 888, 776, 709,  25, 142, 582, 234, 523, 335, 422, 181,  31,  52, 719, 252, 639, 357, 457, 538, 236, 132,  27,  16, 332, 512, 417,  982, 601,  969, 783 |
  1236, 994, 893, 186, 810, 120, 743, 253, 359, 640, 436, 533, 756, 155, 646, 451, 555, 172, 291, 379, 137, 991, 919, 800, 184, 251, 741, 343, 616, 428, 531, 256, 170, 193, 848, 375, 742, 460, 544, 653, 349, 269, 190, 144, 439, 629, 540, 1127, 724, 1098, 912
|]);
